(set-logic HORN)
; KVARS

(declare-fun k_98 (Int Int Int Int Int Int Int) Bool)

(declare-fun k_96 (Int Int Int Int Int Int Int) Bool)

(declare-fun k_91 (Int Int Int Int Int Int Int) Bool)

(declare-fun k_89 (Int Int Int Int Int Int) Bool)

(declare-fun k_86 (Int Int Int Int Int Int Int) Bool)

(declare-fun k_84 (Int Int Int Int Int Int Int) Bool)

(declare-fun k_81 (Int Int Int Int Int Int Int) Bool)

(declare-fun k_79 (Int Int Int Int Int Int) Bool)

(declare-fun k_76 (Int Int Int Int Int Int Int) Bool)

(declare-fun k_759 (Int Int Int Int Int Int Int Int Int Int Int) Bool)

(declare-fun k_756 (Int Int Int Int Int Int Int Int Int Int) Bool)

(declare-fun k_753 (Int Int Int Int Int Int Int Int Int) Bool)

(declare-fun k_751 (Int Int Int Int Int Int Int Int Int) Bool)

(declare-fun k_746 (Int Int Int Int Int Int) Bool)

(declare-fun k_744 (Int Int Int Int Int Int) Bool)

(declare-fun k_742 (Int Int Int Int Int Int Int Int Int Int Int Int Int Int) Bool)

(declare-fun k_74 (Int Int Int Int Int Int Int) Bool)

(declare-fun k_739 (Int Int Int Int Int Int Int Int Int Int Int Int Int) Bool)

(declare-fun k_734 (Int Int Int Int Int Int Int Int Int Int Int Int Int Int Int Int Int Int Int Int) Bool)

(declare-fun k_732 (Int Int Int Int Int Int Int Int Int Int Int Int Int Int Int Int Int Int Int) Bool)

(declare-fun k_725 (Int Int Int Int Int Int Int Int Int Int Int Int Int Int Int Int) Bool)

(declare-fun k_72 (Int Int Int Int Int Int Int) Bool)

(declare-fun k_718 (Int Int Int Int Int Int Int Int Int Int Int Int Int Int Int) Bool)

(declare-fun k_716 (Int Int Int Int Int Int Int Int Int Int Int Int Int Int) Bool)

(declare-fun k_712 (Int Int Int Int Int Int Int Int Int Int Int Int Int) Bool)

(declare-fun k_709 (Int Int Int Int Int Int Int Int Int Int Int Int Int Int) Bool)

(declare-fun k_707 (Int Int Int Int Int Int Int Int Int Int Int Int Int Int) Bool)

(declare-fun k_704 (Int Int Int Int Int Int Int Int Int Int Int Int) Bool)

(declare-fun k_701 (Int Int Int Int Int Int Int Int Int Int Int Int Int) Bool)

(declare-fun k_70 (Int Int Int Int Int Int) Bool)

(declare-fun k_699 (Int Int Int Int Int Int Int Int Int Int Int Int Int) Bool)

(declare-fun k_696 (Int Int Int Int Int Int Int Int Int Int Int Int Int) Bool)

(declare-fun k_693 (Int Int Int Int Int Int Int Int Int Int Int Int Int Int) Bool)

(declare-fun k_691 (Int Int Int Int Int Int Int Int Int Int Int Int Int Int) Bool)

(declare-fun k_689 (Int Int Int Int Int Int Int Int Int Int Int Int) Bool)

(declare-fun k_686 (Int Int Int Int Int Int Int Int Int Int Int Int Int) Bool)

(declare-fun k_684 (Int Int Int Int Int Int Int Int Int Int Int Int Int) Bool)

(declare-fun k_681 (Int Int Int Int Int Int Int Int Int Int Int) Bool)

(declare-fun k_676 (Int Int Int Int Int Int Int Int Int Int Int Int Int Int Int Int Int Int) Bool)

(declare-fun k_674 (Int Int Int Int Int Int Int Int Int Int Int Int Int Int Int Int Int) Bool)

(declare-fun k_67 (Int Int Int Int Int Int Int) Bool)

(declare-fun k_667 (Int Int Int Int Int Int Int Int Int Int Int Int Int Int) Bool)

(declare-fun k_660 (Int Int Int Int Int Int Int Int Int Int Int Int Int) Bool)

(declare-fun k_658 (Int Int Int Int Int Int Int Int Int Int Int Int) Bool)

(declare-fun k_654 (Int Int Int Int Int Int Int Int Int Int Int) Bool)

(declare-fun k_651 (Int Int Int Int Int Int Int Int Int Int Int Int) Bool)

(declare-fun k_65 (Int Int Int Int Int Int Int) Bool)

(declare-fun k_649 (Int Int Int Int Int Int Int Int Int Int Int Int) Bool)

(declare-fun k_646 (Int Int Int Int Int Int Int Int Int Int) Bool)

(declare-fun k_643 (Int Int Int Int Int Int Int Int Int Int Int) Bool)

(declare-fun k_641 (Int Int Int Int Int Int Int Int Int Int Int) Bool)

(declare-fun k_638 (Int Int Int Int Int Int Int Int Int Int Int) Bool)

(declare-fun k_635 (Int Int Int Int Int Int Int Int Int Int Int Int) Bool)

(declare-fun k_633 (Int Int Int Int Int Int Int Int Int Int Int Int) Bool)

(declare-fun k_631 (Int Int Int Int Int Int Int Int Int Int) Bool)

(declare-fun k_628 (Int Int Int Int Int Int Int Int Int Int Int) Bool)

(declare-fun k_626 (Int Int Int Int Int Int Int Int Int Int Int) Bool)

(declare-fun k_619 (Int Int Int Int Int Int Int Int Int) Bool)

(declare-fun k_617 (Int Int Int Int Int Int Int Int) Bool)

(declare-fun k_613 (Int Int Int Int Int Int Int) Bool)

(declare-fun k_610 (Int Int Int Int Int Int Int Int) Bool)

(declare-fun k_608 (Int Int Int Int Int Int Int Int) Bool)

(declare-fun k_605 (Int Int Int Int Int Int) Bool)

(declare-fun k_602 (Int Int Int Int Int Int Int) Bool)

(declare-fun k_600 (Int Int Int Int Int Int Int) Bool)

(declare-fun k_595 (Int Int Int Int Int Int Int) Bool)

(declare-fun k_592 (Int Int Int Int Int Int Int Int) Bool)

(declare-fun k_590 (Int Int Int Int Int Int Int Int) Bool)

(declare-fun k_588 (Int Int Int Int Int Int) Bool)

(declare-fun k_585 (Int Int Int Int Int Int Int) Bool)

(declare-fun k_583 (Int Int Int Int Int Int Int) Bool)

(declare-fun k_580 (Int Int Int Int Int Int Int) Bool)

(declare-fun k_577 (Int Int Int Int Int Int Int Int) Bool)

(declare-fun k_575 (Int Int Int Int Int Int Int Int) Bool)

(declare-fun k_573 (Int Int Int Int Int Int) Bool)

(declare-fun k_570 (Int Int Int Int Int Int Int) Bool)

(declare-fun k_568 (Int Int Int Int Int Int Int) Bool)

(declare-fun k_566 (Int Int Int Int Int Int Int) Bool)

(declare-fun k_563 (Int Int Int Int Int Int Int Int) Bool)

(declare-fun k_561 (Int Int Int Int Int Int Int Int) Bool)

(declare-fun k_559 (Int Int Int Int Int Int) Bool)

(declare-fun k_556 (Int Int Int Int Int Int Int) Bool)

(declare-fun k_554 (Int Int Int Int Int Int Int) Bool)

(declare-fun k_550 (Int Int Int Int Int Int) Bool)

(declare-fun k_548 (Int Int Int Int Int Int Int Int Int Int Int Int Int Int) Bool)

(declare-fun k_545 (Int Int Int Int Int Int Int Int Int Int Int Int Int) Bool)

(declare-fun k_542 (Int Int Int Int Int Int Int Int Int Int Int Int) Bool)

(declare-fun k_539 (Int Int Int Int Int Int Int Int Int Int Int) Bool)

(declare-fun k_536 (Int Int Int Int Int Int Int Int Int Int) Bool)

(declare-fun k_529 (Int Int Int Int Int Int Int Int Int) Bool)

(declare-fun k_527 (Int Int Int Int Int Int Int Int) Bool)

(declare-fun k_523 (Int Int Int Int Int Int Int) Bool)

(declare-fun k_520 (Int Int Int Int Int Int Int Int) Bool)

(declare-fun k_518 (Int Int Int Int Int Int Int Int) Bool)

(declare-fun k_515 (Int Int Int Int Int Int) Bool)

(declare-fun k_512 (Int Int Int Int Int Int Int) Bool)

(declare-fun k_510 (Int Int Int Int Int Int Int) Bool)

(declare-fun k_505 (Int Int Int Int Int Int Int) Bool)

(declare-fun k_502 (Int Int Int Int Int Int Int Int) Bool)

(declare-fun k_500 (Int Int Int Int Int Int Int Int) Bool)

(declare-fun k_498 (Int Int Int Int Int Int) Bool)

(declare-fun k_495 (Int Int Int Int Int Int Int) Bool)

(declare-fun k_493 (Int Int Int Int Int Int Int) Bool)

(declare-fun k_490 (Int Int Int Int Int Int Int) Bool)

(declare-fun k_487 (Int Int Int Int Int Int Int Int) Bool)

(declare-fun k_485 (Int Int Int Int Int Int Int Int) Bool)

(declare-fun k_483 (Int Int Int Int Int Int) Bool)

(declare-fun k_480 (Int Int Int Int Int Int Int) Bool)

(declare-fun k_478 (Int Int Int Int Int Int Int) Bool)

(declare-fun k_476 (Int Int Int Int Int Int Int) Bool)

(declare-fun k_473 (Int Int Int Int Int Int Int Int) Bool)

(declare-fun k_471 (Int Int Int Int Int Int Int Int) Bool)

(declare-fun k_469 (Int Int Int Int Int Int) Bool)

(declare-fun k_466 (Int Int Int Int Int Int Int) Bool)

(declare-fun k_464 (Int Int Int Int Int Int Int) Bool)

(declare-fun k_459 (Int Int Int Int Int Int) Bool)

(declare-fun k_455 (Int Int Int Int Int Int Int Int Int Int Int Int Int Int) Bool)

(declare-fun k_453 (Int Int Int Int Int Int Int Int Int Int Int Int Int) Bool)

(declare-fun k_450 (Int Int Int Int Int Int Int Int Int Int Int Int) Bool)

(declare-fun k_443 (Int Int Int Int Int Int Int Int Int Int Int) Bool)

(declare-fun k_441 (Int Int Int Int Int Int Int Int Int Int) Bool)

(declare-fun k_437 (Int Int Int Int Int Int Int Int Int) Bool)

(declare-fun k_434 (Int Int Int Int Int Int Int Int Int Int) Bool)

(declare-fun k_432 (Int Int Int Int Int Int Int Int Int Int) Bool)

(declare-fun k_429 (Int Int Int Int Int Int Int Int) Bool)

(declare-fun k_426 (Int Int Int Int Int Int Int Int Int) Bool)

(declare-fun k_424 (Int Int Int Int Int Int Int Int Int) Bool)

(declare-fun k_421 (Int Int Int Int Int Int Int) Bool)

(declare-fun k_418 (Int Int Int Int Int Int Int Int) Bool)

(declare-fun k_416 (Int Int Int Int Int Int Int Int) Bool)

(declare-fun k_413 (Int Int Int Int Int Int) Bool)

(declare-fun k_409 (Int Int Int Int Int Int Int Int Int) Bool)

(declare-fun k_406 (Int Int Int Int Int Int Int Int Int Int) Bool)

(declare-fun k_404 (Int Int Int Int Int Int Int Int Int Int) Bool)

(declare-fun k_402 (Int Int Int Int Int Int Int Int) Bool)

(declare-fun k_399 (Int Int Int Int Int Int Int Int Int) Bool)

(declare-fun k_397 (Int Int Int Int Int Int Int Int Int) Bool)

(declare-fun k_394 (Int Int Int Int Int Int Int) Bool)

(declare-fun k_391 (Int Int Int Int Int Int Int Int) Bool)

(declare-fun k_389 (Int Int Int Int Int Int Int Int) Bool)

(declare-fun k_386 (Int Int Int Int Int Int) Bool)

(declare-fun k_383 (Int Int Int Int Int Int Int Int Int) Bool)

(declare-fun k_380 (Int Int Int Int Int Int Int Int Int Int) Bool)

(declare-fun k_378 (Int Int Int Int Int Int Int Int Int Int) Bool)

(declare-fun k_376 (Int Int Int Int Int Int Int Int) Bool)

(declare-fun k_373 (Int Int Int Int Int Int Int Int Int) Bool)

(declare-fun k_371 (Int Int Int Int Int Int Int Int Int) Bool)

(declare-fun k_369 (Int Int Int Int Int Int Int) Bool)

(declare-fun k_366 (Int Int Int Int Int Int Int Int) Bool)

(declare-fun k_364 (Int Int Int Int Int Int Int Int) Bool)

(declare-fun k_362 (Int Int Int Int Int Int) Bool)

(declare-fun k_360 (Int Int Int Int Int Int Int Int Int) Bool)

(declare-fun k_357 (Int Int Int Int Int Int Int Int Int Int) Bool)

(declare-fun k_355 (Int Int Int Int Int Int Int Int Int Int) Bool)

(declare-fun k_353 (Int Int Int Int Int Int Int Int) Bool)

(declare-fun k_350 (Int Int Int Int Int Int Int Int Int) Bool)

(declare-fun k_348 (Int Int Int Int Int Int Int Int Int) Bool)

(declare-fun k_345 (Int Int Int Int Int Int Int) Bool)

(declare-fun k_342 (Int Int Int Int Int Int Int Int) Bool)

(declare-fun k_340 (Int Int Int Int Int Int Int Int) Bool)

(declare-fun k_337 (Int Int Int Int Int Int) Bool)

(declare-fun k_333 (Int Int Int Int Int Int) Bool)

(declare-fun k_329 (Int Int Int Int Int Int Int Int Int Int Int Int Int Int Int) Bool)

(declare-fun k_327 (Int Int Int Int Int Int Int Int Int Int Int Int Int Int) Bool)

(declare-fun k_324 (Int Int Int Int Int Int Int Int Int Int Int Int Int) Bool)

(declare-fun k_321 (Int Int Int Int Int Int Int Int Int Int Int Int Int) Bool)

(declare-fun k_316 (Int Int Int Int Int Int Int Int Int Int Int) Bool)

(declare-fun k_309 (Int Int Int Int Int Int Int Int Int Int) Bool)

(declare-fun k_307 (Int Int Int Int Int Int Int Int Int) Bool)

(declare-fun k_303 (Int Int Int Int Int Int Int Int) Bool)

(declare-fun k_300 (Int Int Int Int Int Int Int Int Int) Bool)

(declare-fun k_298 (Int Int Int Int Int Int Int Int Int) Bool)

(declare-fun k_295 (Int Int Int Int Int Int Int) Bool)

(declare-fun k_292 (Int Int Int Int Int Int Int Int) Bool)

(declare-fun k_290 (Int Int Int Int Int Int Int Int) Bool)

(declare-fun k_287 (Int Int Int Int Int Int) Bool)

(declare-fun k_282 (Int Int Int Int Int Int Int Int) Bool)

(declare-fun k_279 (Int Int Int Int Int Int Int Int Int) Bool)

(declare-fun k_277 (Int Int Int Int Int Int Int Int Int) Bool)

(declare-fun k_275 (Int Int Int Int Int Int Int) Bool)

(declare-fun k_272 (Int Int Int Int Int Int Int Int) Bool)

(declare-fun k_270 (Int Int Int Int Int Int Int Int) Bool)

(declare-fun k_267 (Int Int Int Int Int Int) Bool)

(declare-fun k_264 (Int Int Int Int Int Int Int Int) Bool)

(declare-fun k_261 (Int Int Int Int Int Int Int Int Int) Bool)

(declare-fun k_259 (Int Int Int Int Int Int Int Int Int) Bool)

(declare-fun k_257 (Int Int Int Int Int Int Int) Bool)

(declare-fun k_254 (Int Int Int Int Int Int Int Int) Bool)

(declare-fun k_252 (Int Int Int Int Int Int Int Int) Bool)

(declare-fun k_250 (Int Int Int Int Int Int) Bool)

(declare-fun k_248 (Int Int Int Int Int Int Int Int) Bool)

(declare-fun k_245 (Int Int Int Int Int Int Int Int Int) Bool)

(declare-fun k_243 (Int Int Int Int Int Int Int Int Int) Bool)

(declare-fun k_241 (Int Int Int Int Int Int Int) Bool)

(declare-fun k_238 (Int Int Int Int Int Int Int Int) Bool)

(declare-fun k_236 (Int Int Int Int Int Int Int Int) Bool)

(declare-fun k_233 (Int Int Int Int Int Int) Bool)

(declare-fun k_228 (Int Int Int Int Int Int) Bool)

(declare-fun k_224 (Int Int Int Int Int Int Int Int Int Int Int Int Int Int Int) Bool)

(declare-fun k_222 (Int Int Int Int Int Int Int Int Int Int Int Int Int Int) Bool)

(declare-fun k_219 (Int Int Int Int Int Int Int Int Int Int Int Int Int) Bool)

(declare-fun k_216 (Int Int Int Int Int Int Int Int Int Int Int Int Int) Bool)

(declare-fun k_211 (Int Int Int Int Int Int Int Int Int Int Int) Bool)

(declare-fun k_204 (Int Int Int Int Int Int Int Int Int Int) Bool)

(declare-fun k_202 (Int Int Int Int Int Int Int Int Int) Bool)

(declare-fun k_198 (Int Int Int Int Int Int Int Int) Bool)

(declare-fun k_195 (Int Int Int Int Int Int Int Int Int) Bool)

(declare-fun k_193 (Int Int Int Int Int Int Int Int Int) Bool)

(declare-fun k_190 (Int Int Int Int Int Int Int) Bool)

(declare-fun k_187 (Int Int Int Int Int Int Int Int) Bool)

(declare-fun k_185 (Int Int Int Int Int Int Int Int) Bool)

(declare-fun k_182 (Int Int Int Int Int Int) Bool)

(declare-fun k_177 (Int Int Int Int Int Int Int Int) Bool)

(declare-fun k_174 (Int Int Int Int Int Int Int Int Int) Bool)

(declare-fun k_172 (Int Int Int Int Int Int Int Int Int) Bool)

(declare-fun k_170 (Int Int Int Int Int Int Int) Bool)

(declare-fun k_167 (Int Int Int Int Int Int Int Int) Bool)

(declare-fun k_165 (Int Int Int Int Int Int Int Int) Bool)

(declare-fun k_162 (Int Int Int Int Int Int) Bool)

(declare-fun k_159 (Int Int Int Int Int Int Int Int) Bool)

(declare-fun k_156 (Int Int Int Int Int Int Int Int Int) Bool)

(declare-fun k_154 (Int Int Int Int Int Int Int Int Int) Bool)

(declare-fun k_152 (Int Int Int Int Int Int Int) Bool)

(declare-fun k_149 (Int Int Int Int Int Int Int Int) Bool)

(declare-fun k_147 (Int Int Int Int Int Int Int Int) Bool)

(declare-fun k_145 (Int Int Int Int Int Int) Bool)

(declare-fun k_143 (Int Int Int Int Int Int Int Int) Bool)

(declare-fun k_140 (Int Int Int Int Int Int Int Int Int) Bool)

(declare-fun k_138 (Int Int Int Int Int Int Int Int Int) Bool)

(declare-fun k_136 (Int Int Int Int Int Int Int) Bool)

(declare-fun k_133 (Int Int Int Int Int Int Int Int) Bool)

(declare-fun k_131 (Int Int Int Int Int Int Int Int) Bool)

(declare-fun k_128 (Int Int Int Int Int Int) Bool)

(declare-fun k_123 (Int Int Int Int Int Int) Bool)

(declare-fun k_120 (Int Int Int Int Int Int Int Int Int Int Int Int Int Int Int) Bool)

(declare-fun k_116 (Int Int Int Int Int Int Int Int Int Int Int Int Int) Bool)

(declare-fun k_104 (Int Int Int Int Int Int Int) Bool)

(declare-fun k_101 (Int Int Int Int Int Int) Bool)

; CONSTRAINTS

; cid = 311
(assert (forall ((EQ_6U Int) 
(False_68 Int) (GT_6W Int) (LT_6S Int) (Prop (Array Int Bool)) (True_6u Int) 
(VV_F311 Int) (cmp (Array Int Int)) (ds_dPB Int) 
(fix__58__35_64 (Array Int (Array Int Int))) (fix__91__93__35_6m Int) 
(len (Array Int Int)) (lq_anf__dQ1 Int) (lq_anf__dQ2 Int) (x1_aNA Int) 
(xs_aNB Int)) 
 (=> (and (not (select Prop VV_F311)) (and (k_101 EQ_6U False_68 GT_6W LT_6S True_6u ds_dPB) (and (k_101 EQ_6U False_68 GT_6W LT_6S True_6u lq_anf__dQ1) (and (k_96 EQ_6U False_68 GT_6W LT_6S True_6u lq_anf__dQ1 x1_aNA) (and (= (select cmp EQ_6U) EQ_6U) (and (not (select Prop False_68)) (and (= (select cmp GT_6W) GT_6W) (and (= (select cmp LT_6S) LT_6S) (and (select Prop True_6u) (and (>= (select len ds_dPB) 0) (and (>= (select len lq_anf__dQ1) 0) (and (= lq_anf__dQ1 ds_dPB) (and (>= (select len lq_anf__dQ1) 0) (and (= lq_anf__dQ1 (select (select fix__58__35_64 x1_aNA) xs_aNB)) (and (= (select len lq_anf__dQ1) (+ 1 (select len xs_aNB))) (and (>= (select len lq_anf__dQ1) 0) (and (>= (select len lq_anf__dQ2) 0) (and (= lq_anf__dQ2 xs_aNB) (and (>= (select len lq_anf__dQ2) 0) (and (= lq_anf__dQ2 fix__91__93__35_6m) (and (= (select len lq_anf__dQ2) 0) (and (>= (select len lq_anf__dQ2) 0) (and (>= (select len xs_aNB) 0) (and (select Prop VV_F311) (and (= VV_F311 True_6u) true))))))))))))))))))))))))) false))
)


; cid = 306
(assert (forall ((EQ_6U Int) (False_68 Int) (GT_6W Int) 
(LT_6S Int) (Prop (Array Int Bool)) (True_6u Int) (VV_F306 Int) 
(cmp (Array Int Int)) (ds_dPB Int) 
(fix__58__35_64 (Array Int (Array Int Int))) (len (Array Int Int)) 
(lq_anf__dQ1 Int) (lq_anf__dQ2 Int) (lq_anf__dQ3 Int) (lq_anf__dQ4 Int) 
(lq_tmp_x77 Int) (x1_aNA Int) (x2_aNC Int) (xs_aNB Int) 
(xs2_aND Int)) 
 (=> (and (k_101 EQ_6U False_68 GT_6W LT_6S True_6u ds_dPB) (and (k_101 EQ_6U False_68 GT_6W LT_6S True_6u lq_anf__dQ1) (and (k_96 EQ_6U False_68 GT_6W LT_6S True_6u lq_anf__dQ1 x1_aNA) (and (k_96 EQ_6U False_68 GT_6W LT_6S True_6u lq_anf__dQ1 x2_aNC) (and (k_98 EQ_6U False_68 GT_6W LT_6S True_6u x2_aNC x1_aNA) (and (= (select cmp EQ_6U) EQ_6U) (and (not (select Prop False_68)) (and (= (select cmp GT_6W) GT_6W) (and (= (select cmp LT_6S) LT_6S) (and (select Prop True_6u) (and (>= (select len ds_dPB) 0) (and (>= (select len lq_anf__dQ1) 0) (and (= lq_anf__dQ1 ds_dPB) (and (>= (select len lq_anf__dQ1) 0) (and (= lq_anf__dQ1 (select (select fix__58__35_64 x1_aNA) xs_aNB)) (and (= (select len lq_anf__dQ1) (+ 1 (select len xs_aNB))) (and (>= (select len lq_anf__dQ1) 0) (and (>= (select len lq_anf__dQ2) 0) (and (= lq_anf__dQ2 xs_aNB) (and (>= (select len lq_anf__dQ2) 0) (and (= lq_anf__dQ2 (select (select fix__58__35_64 x2_aNC) xs2_aND)) (and (= (select len lq_anf__dQ2) (+ 1 (select len xs2_aND))) (and (>= (select len lq_anf__dQ2) 0) (and (= (select Prop lq_anf__dQ3) (<= x1_aNA x2_aNC)) (and (select Prop lq_anf__dQ4) (and (>= (select len xs_aNB) 0) (and (>= (select len xs2_aND) 0) (and (k_98 EQ_6U False_68 GT_6W LT_6S True_6u VV_F306 lq_tmp_x77) true)))))))))))))))))))))))))))) (k_76 EQ_6U False_68 GT_6W LT_6S True_6u VV_F306 lq_tmp_x77)))
)


; cid = 305
(assert (forall ((EQ_6U Int) (False_68 Int) (GT_6W Int) 
(LT_6S Int) (Prop (Array Int Bool)) (True_6u Int) (VV_1116 Int) 
(VV_F305 Int) (cmp (Array Int Int)) (ds_dPB Int) 
(fix__58__35_64 (Array Int (Array Int Int))) (len (Array Int Int)) 
(lq_anf__dQ1 Int) (lq_anf__dQ2 Int) (lq_anf__dQ3 Int) (lq_anf__dQ4 Int) 
(x1_aNA Int) (x2_aNC Int) (xs_aNB Int) 
(xs2_aND Int)) 
 (=> (and (k_101 EQ_6U False_68 GT_6W LT_6S True_6u ds_dPB) (and (k_101 EQ_6U False_68 GT_6W LT_6S True_6u lq_anf__dQ1) (and (k_96 EQ_6U False_68 GT_6W LT_6S True_6u lq_anf__dQ1 x1_aNA) (and (k_96 EQ_6U False_68 GT_6W LT_6S True_6u lq_anf__dQ1 x2_aNC) (and (k_98 EQ_6U False_68 GT_6W LT_6S True_6u x2_aNC x1_aNA) (and (= (select cmp EQ_6U) EQ_6U) (and (not (select Prop False_68)) (and (= (select cmp GT_6W) GT_6W) (and (= (select cmp LT_6S) LT_6S) (and (select Prop True_6u) (and (>= (select len VV_1116) 0) (and (= VV_1116 xs_aNB) (and (>= (select len VV_1116) 0) (and (>= (select len ds_dPB) 0) (and (>= (select len lq_anf__dQ1) 0) (and (= lq_anf__dQ1 ds_dPB) (and (>= (select len lq_anf__dQ1) 0) (and (= lq_anf__dQ1 (select (select fix__58__35_64 x1_aNA) xs_aNB)) (and (= (select len lq_anf__dQ1) (+ 1 (select len xs_aNB))) (and (>= (select len lq_anf__dQ1) 0) (and (>= (select len lq_anf__dQ2) 0) (and (= lq_anf__dQ2 xs_aNB) (and (>= (select len lq_anf__dQ2) 0) (and (= lq_anf__dQ2 (select (select fix__58__35_64 x2_aNC) xs2_aND)) (and (= (select len lq_anf__dQ2) (+ 1 (select len xs2_aND))) (and (>= (select len lq_anf__dQ2) 0) (and (= (select Prop lq_anf__dQ3) (<= x1_aNA x2_aNC)) (and (select Prop lq_anf__dQ4) (and (>= (select len xs_aNB) 0) (and (>= (select len xs2_aND) 0) (and (k_96 EQ_6U False_68 GT_6W LT_6S True_6u lq_anf__dQ1 VV_F305) (and (k_98 EQ_6U False_68 GT_6W LT_6S True_6u VV_F305 x1_aNA) true)))))))))))))))))))))))))))))))) (k_74 EQ_6U False_68 GT_6W LT_6S True_6u VV_F305 VV_1116)))
)


; cid = 305
(assert (forall ((EQ_6U Int) (False_68 Int) (GT_6W Int) 
(LT_6S Int) (Prop (Array Int Bool)) (True_6u Int) (VV_1116 Int) 
(VV_F305 Int) (cmp (Array Int Int)) (ds_dPB Int) 
(fix__58__35_64 (Array Int (Array Int Int))) (len (Array Int Int)) 
(lq_anf__dQ1 Int) (lq_anf__dQ2 Int) (lq_anf__dQ3 Int) (lq_anf__dQ4 Int) 
(x1_aNA Int) (x2_aNC Int) (xs_aNB Int) 
(xs2_aND Int)) 
 (=> (and (k_101 EQ_6U False_68 GT_6W LT_6S True_6u ds_dPB) (and (k_101 EQ_6U False_68 GT_6W LT_6S True_6u lq_anf__dQ1) (and (k_96 EQ_6U False_68 GT_6W LT_6S True_6u lq_anf__dQ1 x1_aNA) (and (k_96 EQ_6U False_68 GT_6W LT_6S True_6u lq_anf__dQ1 x2_aNC) (and (k_98 EQ_6U False_68 GT_6W LT_6S True_6u x2_aNC x1_aNA) (and (= (select cmp EQ_6U) EQ_6U) (and (not (select Prop False_68)) (and (= (select cmp GT_6W) GT_6W) (and (= (select cmp LT_6S) LT_6S) (and (select Prop True_6u) (and (>= (select len VV_1116) 0) (and (= VV_1116 xs_aNB) (and (>= (select len VV_1116) 0) (and (>= (select len ds_dPB) 0) (and (>= (select len lq_anf__dQ1) 0) (and (= lq_anf__dQ1 ds_dPB) (and (>= (select len lq_anf__dQ1) 0) (and (= lq_anf__dQ1 (select (select fix__58__35_64 x1_aNA) xs_aNB)) (and (= (select len lq_anf__dQ1) (+ 1 (select len xs_aNB))) (and (>= (select len lq_anf__dQ1) 0) (and (>= (select len lq_anf__dQ2) 0) (and (= lq_anf__dQ2 xs_aNB) (and (>= (select len lq_anf__dQ2) 0) (and (= lq_anf__dQ2 (select (select fix__58__35_64 x2_aNC) xs2_aND)) (and (= (select len lq_anf__dQ2) (+ 1 (select len xs2_aND))) (and (>= (select len lq_anf__dQ2) 0) (and (= (select Prop lq_anf__dQ3) (<= x1_aNA x2_aNC)) (and (select Prop lq_anf__dQ4) (and (>= (select len xs_aNB) 0) (and (>= (select len xs2_aND) 0) (and (k_96 EQ_6U False_68 GT_6W LT_6S True_6u lq_anf__dQ1 VV_F305) (and (k_98 EQ_6U False_68 GT_6W LT_6S True_6u VV_F305 x1_aNA) true)))))))))))))))))))))))))))))))) (k_120 EQ_6U False_68 GT_6W LT_6S True_6u VV_F305 ds_dPB lq_anf__dQ1 lq_anf__dQ2 lq_anf__dQ3 lq_anf__dQ4 x1_aNA x2_aNC xs_aNB xs2_aND)))
)


; cid = 304
(assert (forall ((EQ_6U Int) (False_68 Int) (GT_6W Int) 
(LT_6S Int) (Prop (Array Int Bool)) (True_6u Int) (VV_F304 Int) 
(cmp (Array Int Int)) (ds_dPB Int) 
(fix__58__35_64 (Array Int (Array Int Int))) (len (Array Int Int)) 
(lq_anf__dQ1 Int) (lq_anf__dQ2 Int) (lq_anf__dQ3 Int) (lq_anf__dQ4 Int) 
(x1_aNA Int) (x2_aNC Int) (xs_aNB Int) 
(xs2_aND Int)) 
 (=> (and (k_101 EQ_6U False_68 GT_6W LT_6S True_6u ds_dPB) (and (k_101 EQ_6U False_68 GT_6W LT_6S True_6u lq_anf__dQ1) (and (k_96 EQ_6U False_68 GT_6W LT_6S True_6u lq_anf__dQ1 x1_aNA) (and (k_96 EQ_6U False_68 GT_6W LT_6S True_6u lq_anf__dQ1 x2_aNC) (and (k_98 EQ_6U False_68 GT_6W LT_6S True_6u x2_aNC x1_aNA) (and (= (select cmp EQ_6U) EQ_6U) (and (not (select Prop False_68)) (and (= (select cmp GT_6W) GT_6W) (and (= (select cmp LT_6S) LT_6S) (and (select Prop True_6u) (and (>= (select len ds_dPB) 0) (and (>= (select len lq_anf__dQ1) 0) (and (= lq_anf__dQ1 ds_dPB) (and (>= (select len lq_anf__dQ1) 0) (and (= lq_anf__dQ1 (select (select fix__58__35_64 x1_aNA) xs_aNB)) (and (= (select len lq_anf__dQ1) (+ 1 (select len xs_aNB))) (and (>= (select len lq_anf__dQ1) 0) (and (>= (select len lq_anf__dQ2) 0) (and (= lq_anf__dQ2 xs_aNB) (and (>= (select len lq_anf__dQ2) 0) (and (= lq_anf__dQ2 (select (select fix__58__35_64 x2_aNC) xs2_aND)) (and (= (select len lq_anf__dQ2) (+ 1 (select len xs2_aND))) (and (>= (select len lq_anf__dQ2) 0) (and (= (select Prop lq_anf__dQ3) (<= x1_aNA x2_aNC)) (and (select Prop lq_anf__dQ4) (and (>= (select len xs_aNB) 0) (and (>= (select len xs2_aND) 0) (and (>= (select len VV_F304) 0) (and (= VV_F304 xs_aNB) true))))))))))))))))))))))))))))) (k_79 EQ_6U False_68 GT_6W LT_6S True_6u VV_F304)))
)


; cid = 301
(assert (forall ((EQ_6U Int) (False_68 Int) (GT_6W Int) 
(LT_6S Int) (Prop (Array Int Bool)) (True_6u Int) (VV_F301 Int) 
(cmp (Array Int Int)) 
(lq_tmp_x99 Int)) 
 (=> (and (= (select cmp EQ_6U) EQ_6U) (and (not (select Prop False_68)) (and (= (select cmp GT_6W) GT_6W) (and (= (select cmp LT_6S) LT_6S) (and (select Prop True_6u) (and (k_76 EQ_6U False_68 GT_6W LT_6S True_6u VV_F301 lq_tmp_x99) true)))))) (k_98 EQ_6U False_68 GT_6W LT_6S True_6u VV_F301 lq_tmp_x99)))
)


; cid = 300
(assert (forall ((EQ_6U Int) (False_68 Int) (GT_6W Int) 
(LT_6S Int) (Prop (Array Int Bool)) (True_6u Int) (VV_1104 Int) 
(VV_F300 Int) (cmp (Array Int Int)) 
(len (Array Int Int))) 
 (=> (and (k_79 EQ_6U False_68 GT_6W LT_6S True_6u VV_1104) (and (= (select cmp EQ_6U) EQ_6U) (and (not (select Prop False_68)) (and (= (select cmp GT_6W) GT_6W) (and (= (select cmp LT_6S) LT_6S) (and (select Prop True_6u) (and (>= (select len VV_1104) 0) (and (k_74 EQ_6U False_68 GT_6W LT_6S True_6u VV_F300 VV_1104) true)))))))) (k_96 EQ_6U False_68 GT_6W LT_6S True_6u VV_1104 VV_F300)))
)


; cid = 299
(assert (forall ((EQ_6U Int) (False_68 Int) (GT_6W Int) 
(LT_6S Int) (Prop (Array Int Bool)) (True_6u Int) (VV_F299 Int) 
(cmp (Array Int Int))) 
 (=> (and (= (select cmp EQ_6U) EQ_6U) (and (not (select Prop False_68)) (and (= (select cmp GT_6W) GT_6W) (and (= (select cmp LT_6S) LT_6S) (and (select Prop True_6u) (and (k_79 EQ_6U False_68 GT_6W LT_6S True_6u VV_F299) true)))))) (k_101 EQ_6U False_68 GT_6W LT_6S True_6u VV_F299)))
)


; cid = 297
(assert (forall ((EQ_6U Int) (False_68 Int) (GT_6W Int) 
(LT_6S Int) (Prop (Array Int Bool)) (True_6u Int) (VV_F297 Int) 
(cmp (Array Int Int)) 
(lq_tmp_x77 Int)) 
 (=> (and (= (select cmp EQ_6U) EQ_6U) (and (not (select Prop False_68)) (and (= (select cmp GT_6W) GT_6W) (and (= (select cmp LT_6S) LT_6S) (and (select Prop True_6u) (and (k_86 EQ_6U False_68 GT_6W LT_6S True_6u VV_F297 lq_tmp_x77) true)))))) (k_76 EQ_6U False_68 GT_6W LT_6S True_6u VV_F297 lq_tmp_x77)))
)


; cid = 296
(assert (forall ((EQ_6U Int) (False_68 Int) (GT_6W Int) 
(LT_6S Int) (Prop (Array Int Bool)) (True_6u Int) (VV_1097 Int) 
(VV_F296 Int) (cmp (Array Int Int)) 
(len (Array Int Int))) 
 (=> (and (k_89 EQ_6U False_68 GT_6W LT_6S True_6u VV_1097) (and (= (select cmp EQ_6U) EQ_6U) (and (not (select Prop False_68)) (and (= (select cmp GT_6W) GT_6W) (and (= (select cmp LT_6S) LT_6S) (and (select Prop True_6u) (and (>= (select len VV_1097) 0) (and (k_84 EQ_6U False_68 GT_6W LT_6S True_6u VV_F296 VV_1097) true)))))))) (k_74 EQ_6U False_68 GT_6W LT_6S True_6u VV_F296 VV_1097)))
)


; cid = 296
(assert (forall ((EQ_6U Int) (False_68 Int) (GT_6W Int) 
(LT_6S Int) (Prop (Array Int Bool)) (True_6u Int) (VV_1097 Int) 
(VV_F296 Int) (cmp (Array Int Int)) 
(len (Array Int Int))) 
 (=> (and (k_89 EQ_6U False_68 GT_6W LT_6S True_6u VV_1097) (and (= (select cmp EQ_6U) EQ_6U) (and (not (select Prop False_68)) (and (= (select cmp GT_6W) GT_6W) (and (= (select cmp LT_6S) LT_6S) (and (select Prop True_6u) (and (>= (select len VV_1097) 0) (and (k_84 EQ_6U False_68 GT_6W LT_6S True_6u VV_F296 VV_1097) true)))))))) (k_123 EQ_6U False_68 GT_6W LT_6S True_6u VV_F296)))
)


; cid = 295
(assert (forall ((EQ_6U Int) (False_68 Int) (GT_6W Int) 
(LT_6S Int) (Prop (Array Int Bool)) (True_6u Int) (VV_F295 Int) 
(cmp (Array Int Int))) 
 (=> (and (= (select cmp EQ_6U) EQ_6U) (and (not (select Prop False_68)) (and (= (select cmp GT_6W) GT_6W) (and (= (select cmp LT_6S) LT_6S) (and (select Prop True_6u) (and (k_89 EQ_6U False_68 GT_6W LT_6S True_6u VV_F295) true)))))) (k_79 EQ_6U False_68 GT_6W LT_6S True_6u VV_F295)))
)


; cid = 293
(assert (forall ((EQ_6U Int) (False_68 Int) (GT_6W Int) 
(LT_6S Int) (Prop (Array Int Bool)) (True_6u Int) (VV_F293 Int) 
(cmp (Array Int Int)) 
(lq_tmp_x87 Int)) 
 (=> (and (= (select cmp EQ_6U) EQ_6U) (and (not (select Prop False_68)) (and (= (select cmp GT_6W) GT_6W) (and (= (select cmp LT_6S) LT_6S) (and (select Prop True_6u) (and (k_67 EQ_6U False_68 GT_6W LT_6S True_6u VV_F293 lq_tmp_x87) true)))))) (k_86 EQ_6U False_68 GT_6W LT_6S True_6u VV_F293 lq_tmp_x87)))
)


; cid = 292
(assert (forall ((EQ_6U Int) (False_68 Int) (GT_6W Int) 
(LT_6S Int) (Prop (Array Int Bool)) (True_6u Int) (VV_1091 Int) 
(VV_F292 Int) (cmp (Array Int Int)) 
(len (Array Int Int))) 
 (=> (and (k_70 EQ_6U False_68 GT_6W LT_6S True_6u VV_1091) (and (= (select cmp EQ_6U) EQ_6U) (and (not (select Prop False_68)) (and (= (select cmp GT_6W) GT_6W) (and (= (select cmp LT_6S) LT_6S) (and (select Prop True_6u) (and (>= (select len VV_1091) 0) (and (k_65 EQ_6U False_68 GT_6W LT_6S True_6u VV_F292 VV_1091) true)))))))) (k_84 EQ_6U False_68 GT_6W LT_6S True_6u VV_F292 VV_1091)))
)


; cid = 291
(assert (forall ((EQ_6U Int) (False_68 Int) (GT_6W Int) 
(LT_6S Int) (Prop (Array Int Bool)) (True_6u Int) (VV_F291 Int) 
(cmp (Array Int Int))) 
 (=> (and (= (select cmp EQ_6U) EQ_6U) (and (not (select Prop False_68)) (and (= (select cmp GT_6W) GT_6W) (and (= (select cmp LT_6S) LT_6S) (and (select Prop True_6u) (and (k_70 EQ_6U False_68 GT_6W LT_6S True_6u VV_F291) true)))))) (k_89 EQ_6U False_68 GT_6W LT_6S True_6u VV_F291)))
)


; cid = 7
(assert (forall ((EQ_6U Int) (False_68 Int) (GT_6W Int) 
(LT_6S Int) (Prop (Array Int Bool)) (True_6u Int) (VV_F7 Int) 
(cmp (Array Int Int)) (len (Array Int Int)) (lq_anf__dQw Int) 
(lq_anf__dQx Int) (lq_anf__dQy Int) 
(x Int)) 
 (=> (and (k_751 EQ_6U False_68 GT_6W LT_6S True_6u x lq_anf__dQw lq_anf__dQx lq_anf__dQy) (and (= (select cmp EQ_6U) EQ_6U) (and (not (select Prop False_68)) (and (= (select cmp GT_6W) GT_6W) (and (= (select cmp LT_6S) LT_6S) (and (select Prop True_6u) (and (= lq_anf__dQw 1) (and (= lq_anf__dQx 10) (and (>= (select len lq_anf__dQy) 0) true))))))))) (k_753 EQ_6U False_68 GT_6W LT_6S True_6u VV_F7 lq_anf__dQw lq_anf__dQx lq_anf__dQy)))
)


; cid = 6
(assert (forall ((EQ_6U Int) (False_68 Int) (GT_6W Int) 
(LT_6S Int) (Prop (Array Int Bool)) (True_6u Int) (VV_776 Int) (VV_F6 Int) 
(cmp (Array Int Int)) (len (Array Int Int)) (lq_anf__dQw Int) 
(lq_anf__dQx Int) 
(lq_anf__dQy Int)) 
 (=> (and (= (select cmp EQ_6U) EQ_6U) (and (not (select Prop False_68)) (and (= (select cmp GT_6W) GT_6W) (and (= (select cmp LT_6S) LT_6S) (and (select Prop True_6u) (and (>= (select len VV_776) 0) (and (= VV_776 lq_anf__dQy) (and (>= (select len VV_776) 0) (and (= lq_anf__dQw 1) (and (= lq_anf__dQx 10) (and (>= (select len lq_anf__dQy) 0) true))))))))))) (k_751 EQ_6U False_68 GT_6W LT_6S True_6u VV_F6 lq_anf__dQw lq_anf__dQx lq_anf__dQy)))
)


; cid = 5
(assert (forall ((EQ_6U Int) (False_68 Int) (GT_6W Int) 
(LT_6S Int) (Prop (Array Int Bool)) (True_6u Int) (VV_770 Int) (VV_F5 Int) 
(cmp (Array Int Int)) (len (Array Int Int)) (lq_anf__dQw Int) 
(lq_anf__dQx Int) (lq_anf__dQy Int) 
(rlist_aNE Int)) 
 (=> (and (= (select cmp EQ_6U) EQ_6U) (and (not (select Prop False_68)) (and (= (select cmp GT_6W) GT_6W) (and (= (select cmp LT_6S) LT_6S) (and (select Prop True_6u) (and (= (select len VV_770) (select len lq_anf__dQy)) (and (>= (select len VV_770) 0) (and (= VV_770 rlist_aNE) (and (>= (select len VV_770) 0) (and (= lq_anf__dQw 1) (and (= lq_anf__dQx 10) (and (>= (select len lq_anf__dQy) 0) (and (= (select len rlist_aNE) (select len lq_anf__dQy)) (and (>= (select len rlist_aNE) 0) (and (k_753 EQ_6U False_68 GT_6W LT_6S True_6u VV_F5 lq_anf__dQw lq_anf__dQx lq_anf__dQy) true))))))))))))))) (k_756 EQ_6U False_68 GT_6W LT_6S True_6u VV_F5 lq_anf__dQw lq_anf__dQx lq_anf__dQy rlist_aNE)))
)


; cid = 4
(assert (forall ((EQ_6U Int) (False_68 Int) (GT_6W Int) 
(LT_6S Int) (Prop (Array Int Bool)) (True_6u Int) (VV_F4 Int) (bar_aNF Int) 
(cmp (Array Int Int)) (len (Array Int Int)) (lq_anf__dQw Int) 
(lq_anf__dQx Int) (lq_anf__dQy Int) (lq_tmp_x68 Int) 
(rlist_aNE Int)) 
 (=> (and (= (select cmp EQ_6U) EQ_6U) (and (not (select Prop False_68)) (and (= (select cmp GT_6W) GT_6W) (and (= (select cmp LT_6S) LT_6S) (and (select Prop True_6u) (and (>= (select len bar_aNF) 0) (and (= lq_anf__dQw 1) (and (= lq_anf__dQx 10) (and (>= (select len lq_anf__dQy) 0) (and (= (select len rlist_aNE) (select len lq_anf__dQy)) (and (>= (select len rlist_aNE) 0) (and (>= VV_F4 lq_tmp_x68) true)))))))))))) (k_67 EQ_6U False_68 GT_6W LT_6S True_6u VV_F4 lq_tmp_x68)))
)


; cid = 3
(assert (forall ((EQ_6U Int) (False_68 Int) (GT_6W Int) 
(LT_6S Int) (Prop (Array Int Bool)) (True_6u Int) (VV_763 Int) (VV_F3 Int) 
(bar_aNF Int) (cmp (Array Int Int)) (len (Array Int Int)) (lq_anf__dQw Int) 
(lq_anf__dQx Int) (lq_anf__dQy Int) 
(rlist_aNE Int)) 
 (=> (and (= (select cmp EQ_6U) EQ_6U) (and (not (select Prop False_68)) (and (= (select cmp GT_6W) GT_6W) (and (= (select cmp LT_6S) LT_6S) (and (select Prop True_6u) (and (= VV_763 bar_aNF) (and (>= (select len VV_763) 0) (and (>= (select len VV_763) 0) (and (>= (select len bar_aNF) 0) (and (= lq_anf__dQw 1) (and (= lq_anf__dQx 10) (and (>= (select len lq_anf__dQy) 0) (and (= (select len rlist_aNE) (select len lq_anf__dQy)) (and (>= (select len rlist_aNE) 0) (and (k_756 EQ_6U False_68 GT_6W LT_6S True_6u VV_F3 lq_anf__dQw lq_anf__dQx lq_anf__dQy rlist_aNE) true))))))))))))))) (k_65 EQ_6U False_68 GT_6W LT_6S True_6u VV_F3 VV_763)))
)


; cid = 3
(assert (forall ((EQ_6U Int) (False_68 Int) (GT_6W Int) 
(LT_6S Int) (Prop (Array Int Bool)) (True_6u Int) (VV_763 Int) (VV_F3 Int) 
(bar_aNF Int) (cmp (Array Int Int)) (len (Array Int Int)) (lq_anf__dQw Int) 
(lq_anf__dQx Int) (lq_anf__dQy Int) 
(rlist_aNE Int)) 
 (=> (and (= (select cmp EQ_6U) EQ_6U) (and (not (select Prop False_68)) (and (= (select cmp GT_6W) GT_6W) (and (= (select cmp LT_6S) LT_6S) (and (select Prop True_6u) (and (= VV_763 bar_aNF) (and (>= (select len VV_763) 0) (and (>= (select len VV_763) 0) (and (>= (select len bar_aNF) 0) (and (= lq_anf__dQw 1) (and (= lq_anf__dQx 10) (and (>= (select len lq_anf__dQy) 0) (and (= (select len rlist_aNE) (select len lq_anf__dQy)) (and (>= (select len rlist_aNE) 0) (and (k_756 EQ_6U False_68 GT_6W LT_6S True_6u VV_F3 lq_anf__dQw lq_anf__dQx lq_anf__dQy rlist_aNE) true))))))))))))))) (k_759 EQ_6U False_68 GT_6W LT_6S True_6u VV_F3 bar_aNF lq_anf__dQw lq_anf__dQx lq_anf__dQy rlist_aNE)))
)


; cid = 2
(assert (forall ((EQ_6U Int) (False_68 Int) (GT_6W Int) 
(LT_6S Int) (Prop (Array Int Bool)) (True_6u Int) (VV_F2 Int) (bar_aNF Int) 
(cmp (Array Int Int)) (len (Array Int Int)) (lq_anf__dQw Int) 
(lq_anf__dQx Int) (lq_anf__dQy Int) 
(rlist_aNE Int)) 
 (=> (and (= (select cmp EQ_6U) EQ_6U) (and (not (select Prop False_68)) (and (= (select cmp GT_6W) GT_6W) (and (= (select cmp LT_6S) LT_6S) (and (select Prop True_6u) (and (>= (select len bar_aNF) 0) (and (= lq_anf__dQw 1) (and (= lq_anf__dQx 10) (and (>= (select len lq_anf__dQy) 0) (and (= (select len rlist_aNE) (select len lq_anf__dQy)) (and (>= (select len rlist_aNE) 0) (and (= VV_F2 bar_aNF) (and (>= (select len VV_F2) 0) true))))))))))))) (k_70 EQ_6U False_68 GT_6W LT_6S True_6u VV_F2)))
)
